
===== New CPLEX run =====
Instance: /home/yorig/tuner/mpils-tests/instances/miplib/easy/lotsize.mps
Config: /scratch/yorig/mpils-results-grid-seconds-5-no-mip-start/easy/16proc/seed-3/4_lotsize_seed-3_20260502_223218/expansion/config_param_CPXPARAM_MIP_Strategy_StartAlgorithm_4_iter_2.prm
========================

Selected objective sense:  MINIMIZE
Selected objective  name:  R1921
Selected RHS        name:  B
Selected bound      name:  BOUND
Version identifier: 22.1.2.0 | 2024-11-26 | 0edbb82fd
CPXPARAM_Threads                                 8
CPXPARAM_Parallel                                1
CPXPARAM_MIP_Cuts_Cliques                        2
CPXPARAM_MIP_Strategy_StartAlgorithm             4
CPXPARAM_MIP_Cuts_FlowCovers                     2
CPXPARAM_MIP_Cuts_Implied                        1
CPXPARAM_MIP_Limits_GomoryCand                   800
CPXPARAM_MIP_Cuts_Gomory                         -1
CPXPARAM_MIP_Cuts_PathCut                        1
CPXPARAM_MIP_Cuts_MIRCut                         2
CPXPARAM_MIP_Cuts_Disjunctive                    2
CPXPARAM_Emphasis_MIP                            1
CPXPARAM_MIP_Strategy_BBInterval                 4
CPXPARAM_TimeLimit                               5
Tried aggregator 1 time.
MIP Presolve eliminated 595 rows and 0 columns.
MIP Presolve added 1190 rows and 0 columns.
MIP Presolve modified 10 coefficients.
Reduced MIP has 2515 rows, 2985 columns, and 7755 nonzeros.
Reduced MIP has 1195 binaries, 0 generals, 0 SOSs, and 0 indicators.
Presolve time = 0.00 sec. (4.53 ticks)
Probing fixed 0 vars, tightened 5487 bounds.
Probing time = 0.01 sec. (18.38 ticks)
Tried aggregator 2 times.
Detecting symmetries...
MIP Presolve modified 1206 coefficients.
Aggregator did 10 substitutions.
Reduced MIP has 2505 rows, 2975 columns, and 7735 nonzeros.
Reduced MIP has 1195 binaries, 0 generals, 0 SOSs, and 0 indicators.
Presolve time = 0.00 sec. (6.66 ticks)
Probing fixed 0 vars, tightened 2401 bounds.
Probing time = 0.00 sec. (6.41 ticks)
Clique table members: 190.
MIP emphasis: integer feasibility.
MIP search method: dynamic search.
Parallel mode: deterministic, using up to 8 threads.
Root relaxation solution time = 0.01 sec. (15.19 ticks)

        Nodes                                         Cuts/
   Node  Left     Objective  IInf  Best Integer    Best Bound    ItCnt     Gap

      0     0   348385.3466   474                 348385.3466       16         
      0     0   577576.1432   435                   Cuts: 726      960         
      0     0   808986.6820   692                   Cuts: 726     1794         
      0     0   937941.5784   696                   Cuts: 726     2498         
*     0+    0                       1.01740e+07   937941.5784            90.78%
*     0+    0                      7973370.0000   937941.5784            88.24%
Detecting symmetries...
      0     2   937941.5784   696  7973370.0000   937941.5784     2498   88.24%
Elapsed time = 0.37 sec. (544.52 ticks, tree = 0.02 MB, solutions = 2)
    523   499  1092690.6817   491  7973370.0000   940399.3274     8590   88.21%
   1173   984  1173763.9119   422  7973370.0000   940399.3274    16266   88.21%

Performing restart 1

Repeating presolve.
Tried aggregator 1 time.
MIP Presolve modified 1256 coefficients.
Reduced MIP has 2505 rows, 2975 columns, and 7735 nonzeros.
Reduced MIP has 1195 binaries, 0 generals, 0 SOSs, and 0 indicators.
Presolve time = 0.00 sec. (3.85 ticks)
Tried aggregator 1 time.
MIP Presolve modified 1015 coefficients.
Reduced MIP has 2505 rows, 2975 columns, and 7735 nonzeros.
Reduced MIP has 1195 binaries, 0 generals, 0 SOSs, and 0 indicators.
Presolve time = 0.00 sec. (5.12 ticks)
Represolve time = 0.02 sec. (18.84 ticks)
   1668     0  1114740.0913   740  7973370.0000     Cuts: 726    29330   86.02%
   1668     0  1193253.3151   720  7973370.0000     Cuts: 726    30134   85.03%
   1668     0  1249950.8036   728  7973370.0000     Cuts: 726    30957   84.32%
   1668     2  1249950.8036   728  7973370.0000  1249950.8036    30957   84.32%
   1678    12  1297294.9644   678  7973370.0000  1249972.4946    31305   84.32%
   1698    32  1330248.2931   631  7973370.0000  1249972.4946    32167   84.32%
   1726     7  1294991.5462   706  7973370.0000  1249972.4946    31128   84.32%
   1736    70  1416303.4980   679  7973370.0000  1250026.6433    40416   84.32%
   1749    81  1422874.3774   672  7973370.0000  1284382.5329    50038   83.89%
   1784    99  1434872.8682   628  7973370.0000  1284382.5329    55703   83.89%
   2393   466  1429990.2845   517  7973370.0000  1296141.2929    82027   83.74%
Elapsed time = 4.01 sec. (5737.12 ticks, tree = 0.87 MB, solutions = 2)
*  2630+  592                      1688678.0000  1296141.2929            23.25%
*  3195+ 1201                      1658953.0000  1296141.2929            21.87%
*  3202+ 1201                      1639976.0000  1296141.2929            20.97%
   3215  1358  1593176.8513   316  1639976.0000  1296141.2929   129914   20.97%
*  3231+  894                      1639256.0000  1296141.2929            20.93%
*  3240+  894                      1635283.0000  1296141.2929            20.74%
*  3293+  894                      1632678.0000  1296141.2929            20.61%
*  3359+ 1221                      1632060.0000  1297333.4807            20.51%

Clique cuts applied:  1
Cover cuts applied:  21
Implied bound cuts applied:  11
Flow cuts applied:  824
Mixed integer rounding cuts applied:  1068
Flow path cuts applied:  61
Multi commodity flow cuts applied:  20
Lift and project cuts applied:  18
Disjunctive cuts applied:  0
Cone linearizations applied:  0

Root node processing (before b&c):
  Real time             =    0.36 sec. (542.30 ticks)
Parallel b&c, 8 threads:
  Real time             =    4.64 sec. (6615.13 ticks)
  Sync time (average)   =    0.30 sec.
  Wait time (average)   =    0.00 sec.
                          ------------
Total (root+branch&cut) =    5.00 sec. (7157.43 ticks)
Gap: 20.51%
Upper bound: 1.63206e+06
Lower bound: 1.29733e+06
End of CPLEX run. Time: 5.00564 seconds

===== New CPLEX run =====
Instance: /home/yorig/tuner/mpils-tests/instances/miplib/easy/lotsize.mps
Config: /scratch/yorig/mpils-results-grid-seconds-5-no-mip-start/easy/16proc/seed-3/4_lotsize_seed-3_20260502_223218/expansion/config_param_CPXPARAM_MIP_Strategy_StartAlgorithm_5_iter_2.prm
========================

Selected objective sense:  MINIMIZE
Selected objective  name:  R1921
Selected RHS        name:  B
Selected bound      name:  BOUND
Version identifier: 22.1.2.0 | 2024-11-26 | 0edbb82fd
CPXPARAM_Threads                                 8
CPXPARAM_Parallel                                1
CPXPARAM_MIP_Cuts_Cliques                        2
CPXPARAM_MIP_Strategy_StartAlgorithm             5
CPXPARAM_MIP_Cuts_FlowCovers                     2
CPXPARAM_MIP_Cuts_Implied                        1
CPXPARAM_MIP_Limits_GomoryCand                   800
CPXPARAM_MIP_Cuts_Gomory                         -1
CPXPARAM_MIP_Cuts_PathCut                        1
CPXPARAM_MIP_Cuts_MIRCut                         2
CPXPARAM_MIP_Cuts_Disjunctive                    2
CPXPARAM_Emphasis_MIP                            1
CPXPARAM_MIP_Strategy_BBInterval                 4
CPXPARAM_TimeLimit                               5
Tried aggregator 1 time.
MIP Presolve eliminated 595 rows and 0 columns.
MIP Presolve added 1190 rows and 0 columns.
MIP Presolve modified 10 coefficients.
Reduced MIP has 2515 rows, 2985 columns, and 7755 nonzeros.
Reduced MIP has 1195 binaries, 0 generals, 0 SOSs, and 0 indicators.
Presolve time = 0.00 sec. (4.53 ticks)
Probing fixed 0 vars, tightened 5487 bounds.
Probing time = 0.01 sec. (18.38 ticks)
Tried aggregator 2 times.
Detecting symmetries...
MIP Presolve modified 1206 coefficients.
Aggregator did 10 substitutions.
Reduced MIP has 2505 rows, 2975 columns, and 7735 nonzeros.
Reduced MIP has 1195 binaries, 0 generals, 0 SOSs, and 0 indicators.
Presolve time = 0.00 sec. (6.66 ticks)
Probing fixed 0 vars, tightened 2401 bounds.
Probing time = 0.00 sec. (6.41 ticks)
Clique table members: 190.
MIP emphasis: integer feasibility.
MIP search method: dynamic search.
Parallel mode: deterministic, using up to 8 threads.
Root relaxation solution time = 0.06 sec. (63.96 ticks)

        Nodes                                         Cuts/
   Node  Left     Objective  IInf  Best Integer    Best Bound    ItCnt     Gap

      0     0   348385.3466   470                 348385.3466        8         
      0     0   589083.2534   435                   Cuts: 726     1230         
      0     0   827783.8867   696                   Cuts: 726     2217         
*     0+    0                       1.01740e+07   827783.8867            91.86%
*     0+    0                      7973370.0000   827783.8867            89.62%
      0     0   949237.8674   710  7973370.0000     Cuts: 726     3033   88.09%
Detecting symmetries...
      0     2   949237.8674   710  7973370.0000   949237.8674     3033   88.09%
Elapsed time = 0.41 sec. (606.68 ticks, tree = 0.02 MB, solutions = 2)
    356   309   982610.9858   573  7973370.0000   949966.3773     6998   88.09%
    961   757  1087579.9553   497  7973370.0000   949966.3773    14443   88.09%
   1693  1530  1119833.8431   390  7973370.0000   949966.3773    27249   88.09%

Performing restart 1

Repeating presolve.
Tried aggregator 1 time.
MIP Presolve modified 1154 coefficients.
Reduced MIP has 2505 rows, 2975 columns, and 7735 nonzeros.
Reduced MIP has 1195 binaries, 0 generals, 0 SOSs, and 0 indicators.
Presolve time = 0.00 sec. (3.78 ticks)
Tried aggregator 1 time.
MIP Presolve modified 1026 coefficients.
Reduced MIP has 2505 rows, 2975 columns, and 7735 nonzeros.
Reduced MIP has 1195 binaries, 0 generals, 0 SOSs, and 0 indicators.
Presolve time = 0.00 sec. (5.12 ticks)
Represolve time = 0.02 sec. (18.37 ticks)
   1710     0  1071260.1072   702  7973370.0000     Cuts: 726    30233   86.56%
   1710     0  1153391.1550   690  7973370.0000     Cuts: 726    30952   85.53%
   1710     0  1226794.3104   706  7973370.0000     Cuts: 726    31737   84.61%
   1710     2  1226794.3104   706  7973370.0000  1226794.3104    31737   84.61%
   1724    16  1247802.6130   642  7973370.0000  1226841.1667    32209   84.61%
   1750    42  1257577.8959   608  7973370.0000  1226841.1667    32758   84.61%
   1772     3  1228441.4401   690  7973370.0000  1226841.1667    31794   84.61%
   1777     7  1236991.0658   661  7973370.0000  1226841.1667    32053   84.61%
   1784    67  1301705.6824   764  7973370.0000  1228513.5657    35958   84.59%
   1979   208  1446247.7941   444  7973370.0000  1237565.1181    72819   84.48%
Elapsed time = 4.42 sec. (6039.53 ticks, tree = 0.26 MB, solutions = 2)
*  2351+  480                      4689338.0000  1237565.1181            73.61%
*  2356+  480                      3550782.0000  1237565.1181            65.15%
*  2364+  480                      3113956.0000  1237565.1181            60.26%
*  2369+  480                      2915955.0000  1237565.1181            57.56%
*  2514+  564                      1967315.0000  1237565.1181            37.09%

Clique cuts applied:  1
Cover cuts applied:  30
Implied bound cuts applied:  13
Flow cuts applied:  821
Mixed integer rounding cuts applied:  1117
Flow path cuts applied:  83
Multi commodity flow cuts applied:  30
Lift and project cuts applied:  24
Disjunctive cuts applied:  0
Cone linearizations applied:  0

Root node processing (before b&c):
  Real time             =    0.41 sec. (600.24 ticks)
Parallel b&c, 8 threads:
  Real time             =    4.60 sec. (6282.40 ticks)
  Sync time (average)   =    0.25 sec.
  Wait time (average)   =    0.00 sec.
                          ------------
Total (root+branch&cut) =    5.00 sec. (6882.65 ticks)
Gap: 37.09%
Upper bound: 1.96732e+06
Lower bound: 1.23757e+06
End of CPLEX run. Time: 5.00467 seconds
